peakDumbCharging = 33300; 
Machine = anon_enum(16); 
machineSpeed = [3700,3700,3700,3700,3700,3700,3700,3700,3700,3700,3700,3700,3700,3700,3700,3700]; 
machineLoad = [3700,3700,3700,3700,3700,3700,3700,3700,3700,3700,3700,3700,3700,3700,3700,3700]; 
Car = anon_enum(38); 
demandCar = [9600,10400,8080,14920,7720,6600,17040,12520,3440,5160,9360,16160,5880,13560,1680,40,6560,5200,18120,12640,80,4800,9160,15480,2840,13440,15560,6280,9120,14840,13120,6160,26960,13320,5200,9400,9200,3760]; 
arrivalCar = [67,66,64,64,64,63,62,61,61,58,58,57,57,55,54,54,54,53,52,52,51,51,49,49,49,48,48,47,46,46,45,41,40,38,36,36,35,2]; 
departureCar = [71,70,70,72,67,66,71,69,64,62,62,65,59,61,56,55,59,58,61,57,56,54,54,55,52,54,59,51,50,55,54,43,49,43,39,39,39,4]; 
